letting grid be [
[ 1, 1, 1,  2, 3, 3,  3, 3, 3],
[ 1, 4, 4,  5, 5, 6,  6, 6, 6],
[ 7, 7, 4,  8, 9, 6, 10, 6,10],

[11,11, 8,  8, 9,12, 10,10,10],
[11,13,14, 14, 9,15, 15,16,16],
[11,13,17, 14,18,19, 20,20,16],

[13,13,17, 18,18,19, 21,21,22],
[23,23,17, 24,24,25, 26,26,22],
[27,27,28, 28,24,25, 29,22,22]

]

letting hints be [18,4,25,18,14, 24,9,13,17,27, 26,1,15,11,11, 18,8,16,15,10, 13,21,10,18,6, 3,15,11,8]
